\ENCODING=ISO-8859-1
\Problem name: TSP

Minimize
 obj1: 0 x1 + 12.1064136956641 x2 + 9.28786318396975 x3 + 4.87154403805873 x4
       + 14.8055264257228 x5 + 12.5045610888297 x6 + 3.84072063747701 x7
       + 10.9792386856113 x8 + 2.0458469883803 x9 + 8.78828879688894 x10
       + 12.8976732522124 x11 + 8.24040845048407 x12 + 7.74895542861859 x13
       + 2.3918895174311 x14 + 1.42118224062282 x15 + 6.18324650266307 x16
       + 18.6566807168237 x17 + 4.00988587932814 x18 + 5.87650524987755 x19
       + 12.1064136956641 x20 + 0 x21 + 4.19173049994045 x22
       + 11.3941840308589 x23 + 4.51540045904972 x24 + 11.7297564263501 x25
       + 12.6735880859485 x26 + 9.74457339725728 x27 + 10.1751339696241 x28
       + 5.36327203601361 x29 + 19.5087570921023 x30 + 7.19909030056089 x31
       + 10.7445935957333 x32 + 9.95591027618836 x33 + 13.2671769446169 x34
       + 6.88535417829911 x35 + 8.38714589937046 x36 + 8.33623661728439 x37
       + 17.7467928438394 x38 + 9.28786318396975 x39 + 4.19173049994045 x40
       + 0 x41 + 10.2411104526507 x42 + 8.5536956003422 x43
       + 13.3241410655782 x44 + 11.0069861525228 x45 + 11.1969116717299 x46
       + 7.24225542328044 x47 + 6.25869779965799 x48 + 19.2356652629427 x49
       + 3.01146309456839 x50 + 10.7600488726421 x51 + 6.91689132820251 x52
       + 10.6321388807465 x53 + 6.06748275409603 x54 + 12.5373862266508 x55
       + 6.32589529538529 x56 + 15.1594195414092 x57 + 4.87154403805873 x58
       + 11.3941840308589 x59 + 10.2411104526507 x60 + 0 x61
       + 12.6076617610049 x62 + 7.8359270401052 x63 + 1.79968269358163 x64
       + 6.62903074406962 x65 + 5.20186143642996 x66 + 6.47124107268956 x67
       + 9.17578390023824 x68 + 10.6237697928111 x69 + 3.03481376745643 x70
       + 5.54916852890226 x71 + 4.65697258683879 x72 + 4.52917283552643 x73
       + 15.957018911331 x74 + 4.07477167483075 x75 + 7.6486169568288 x76
       + 14.8055264257228 x77 + 4.51540045904972 x78 + 8.5536956003422 x79
       + 12.6076617610049 x80 + 0 x81 + 9.8820745328828 x82
       + 14.2361285509922 x83 + 8.39898578316181 x84 + 13.1400989914054 x85
       + 6.22576041858853 x86 + 19.1157066142832 x87 + 11.5472680320299 x88
       + 10.8677636517439 x89 + 13.0309641391068 x90 + 15.7079671211992 x91
       + 8.72174014694975 x92 + 4.06933976166005 x93 + 10.7962278669341 x94
       + 19.8904961847663 x95 + 12.5045610888297 x96 + 11.7297564263501 x97
       + 13.3241410655782 x98 + 7.8359270401052 x99 + 9.8820745328828 x100
       + 0 x101 + 9.50046183069137 x102 + 2.1278866090607 x103
       + 12.1192149201778 x104 + 7.06816846329082 x105 + 9.85360368597117 x106
       + 15.2489516379939 x107 + 4.80568819670896 x108 + 12.3275358829449 x109
       + 12.4853039922154 x110 + 8.10131975502269 x111 + 11.4438336584451 x112
       + 9.80886483111946 x113 + 14.987740559102 x114 + 3.84072063747701 x115
       + 12.6735880859485 x116 + 11.0069861525228 x117 + 1.79968269358163 x118
       + 14.2361285509922 x119 + 9.50046183069137 x120 + 0 x121
       + 8.40378452270985 x122 + 4.85547772908539 x123 + 8.03287038305747 x124
       + 9.19490596050426 x125 + 10.9056399645652 x126 + 4.74952187663273 x127
       + 5.25657375201472 x128 + 3.20092853966962 x129 + 5.81263218778405 x130
       + 17.6813736453163 x131 + 4.68237626011277 x132 + 5.85580374196746 x133
       + 10.9792386856113 x134 + 9.74457339725728 x135 + 11.1969116717299 x136
       + 6.62903074406962 x137 + 8.39898578316181 x138 + 2.1278866090607 x139
       + 8.40378452270985 x140 + 0 x141 + 10.360922372675 x142
       + 4.94294219238217 x143 + 10.7684925811371 x144 + 13.1451961460511 x145
       + 3.70494127872114 x146 + 10.5314490914856 x147 + 11.1498432017892 x148
       + 6.08133017761762 x149 + 10.5969194018655 x150 + 7.93716909141828 x151
       + 14.1538281534019 x152 + 2.0458469883803 x153 + 10.1751339696241 x154
       + 7.24225542328044 x155 + 5.20186143642996 x156 + 13.1400989914054 x157
       + 12.1192149201778 x158 + 4.85547772908539 x159 + 10.360922372675 x160
       + 0 x161 + 7.37231532129691 x162 + 14.0361445791338 x163
       + 6.32348279553306 x164 + 7.61087991093126 x165 + 0.411373634047527 x166
       + 3.4184096027401 x167 + 4.82975469264241 x168 + 17.0831365304904 x169
       + 2.58040626689786 x170 + 7.92120189224331 x171 + 8.78828879688894 x172
       + 5.36327203601361 x173 + 6.25869779965799 x174 + 6.47124107268956 x175
       + 6.22576041858853 x176 + 7.06816846329082 x177 + 8.03287038305747 x178
       + 4.94294219238217 x179 + 7.37231532129691 x180 + 0 x181
       + 14.1461075665821 x182 + 8.39485063782098 x183 + 5.38698982052755 x184
       + 7.36530514704633 x185 + 9.56430786063659 x186 + 2.60512460438545 x187
       + 9.89931730522896 x188 + 4.83612355055198 x189 + 13.6679621387768 x190
       + 12.8976732522124 x191 + 19.5087570921023 x192 + 19.2356652629427 x193
       + 9.17578390023824 x194 + 19.1157066142832 x195 + 9.85360368597117 x196
       + 9.19490596050426 x197 + 10.7684925811371 x198 + 14.0361445791338 x199
       + 14.1461075665821 x200 + 0 x201 + 19.799106669646 x202
       + 8.76874338267963 x203 + 14.4302205525664 x204 + 11.8503530656387 x205
       + 13.2074488715069 x206 + 21.2399391911568 x207 + 13.2463042920112 x208
       + 10.9444590879764 x209 + 8.24040845048407 x210 + 7.19909030056089 x211
       + 3.01146309456839 x212 + 10.6237697928111 x213 + 11.5472680320299 x214
       + 15.2489516379939 x215 + 10.9056399645652 x216 + 13.1451961460511 x217
       + 6.32348279553306 x218 + 8.39485063782098 x219 + 19.799106669646 x220
       + 0 x221 + 11.9173383526927 x222 + 5.92212620040618 x223
       + 9.66103345934043 x224 + 7.30474061557466 x225 + 15.546217136519 x226
       + 6.56442380626362 x227 + 13.990503410067 x228 + 7.74895542861859 x229
       + 10.7445935957333 x230 + 10.7600488726421 x231 + 3.03481376745643 x232
       + 10.8677636517439 x233 + 4.80568819670896 x234 + 4.74952187663273 x235
       + 3.70494127872114 x236 + 7.61087991093126 x237 + 5.38698982052755 x238
       + 8.76874338267963 x239 + 11.9173383526927 x240 + 0 x241
       + 7.87910462486397 x242 + 7.67961606971759 x243 + 4.71939329123802 x244
       + 13.7632707416228 x245 + 5.6427342272234 x246 + 10.4501529847896 x247
       + 2.3918895174311 x248 + 9.95591027618836 x249 + 6.91689132820251 x250
       + 5.54916852890226 x251 + 13.0309641391068 x252 + 12.3275358829449 x253
       + 5.25657375201472 x254 + 10.5314490914856 x255 + 0.411373634047527 x256
       + 7.36530514704633 x257 + 14.4302205525664 x258 + 5.92212620040618 x259
       + 7.87910462486397 x260 + 0 x261 + 3.78735498451384 x262
       + 4.86776393568366 x263 + 16.9995259350924 x264 + 2.65514111205672 x265
       + 8.26516321520426 x266 + 1.42118224062282 x267 + 13.2671769446169 x268
       + 10.6321388807465 x269 + 4.65697258683879 x270 + 15.7079671211992 x271
       + 12.4853039922154 x272 + 3.20092853966962 x273 + 11.1498432017892 x274
       + 3.4184096027401 x275 + 9.56430786063659 x276 + 11.8503530656387 x277
       + 9.66103345934043 x278 + 7.67961606971759 x279 + 3.78735498451384 x280
       + 0 x281 + 6.99246712076181 x282 + 19.4631013265197 x283
       + 4.98765068159364 x284 + 4.53938196446823 x285 + 6.18324650266307 x286
       + 6.88535417829911 x287 + 6.06748275409603 x288 + 4.52917283552643 x289
       + 8.72174014694975 x290 + 8.10131975502269 x291 + 5.81263218778405 x292
       + 6.08133017761762 x293 + 4.82975469264241 x294 + 2.60512460438545 x295
       + 13.2074488715069 x296 + 7.30474061557466 x297 + 4.71939329123802 x298
       + 4.86776393568366 x299 + 6.99246712076181 x300 + 0 x301
       + 12.4891162910256 x302 + 2.25758689209609 x303 + 11.2118922695598 x304
       + 18.6566807168237 x305 + 8.38714589937046 x306 + 12.5373862266508 x307
       + 15.957018911331 x308 + 4.06933976166005 x309 + 11.4438336584451 x310
       + 17.6813736453163 x311 + 10.5969194018655 x312 + 17.0831365304904 x313
       + 9.89931730522896 x314 + 21.2399391911568 x315 + 15.546217136519 x316
       + 13.7632707416228 x317 + 16.9995259350924 x318 + 19.4631013265197 x319
       + 12.4891162910256 x320 + 0 x321 + 14.6574126751518 x322
       + 23.4695209385166 x323 + 4.00988587932814 x324 + 8.33623661728439 x325
       + 6.32589529538529 x326 + 4.07477167483075 x327 + 10.7962278669341 x328
       + 9.80886483111946 x329 + 4.68237626011277 x330 + 7.93716909141828 x331
       + 2.58040626689786 x332 + 4.83612355055198 x333 + 13.2463042920112 x334
       + 6.56442380626362 x335 + 5.6427342272234 x336 + 2.65514111205672 x337
       + 4.98765068159364 x338 + 2.25758689209609 x339 + 14.6574126751518 x340
       + 0 x341 + 9.41488797442566 x342 + 5.87650524987755 x343
       + 17.7467928438394 x344 + 15.1594195414092 x345 + 7.6486169568288 x346
       + 19.8904961847663 x347 + 14.987740559102 x348 + 5.85580374196746 x349
       + 14.1538281534019 x350 + 7.92120189224331 x351 + 13.6679621387768 x352
       + 10.9444590879764 x353 + 13.990503410067 x354 + 10.4501529847896 x355
       + 8.26516321520426 x356 + 4.53938196446823 x357 + 11.2118922695598 x358
       + 23.4695209385166 x359 + 9.41488797442566 x360 + 0 x361
Subject To
 c1:   x20 + x39 + x58 + x77 + x96 + x115 + x134 + x153 + x172 + x191 + x210
       + x229 + x248 + x267 + x286 + x305 + x324 + x343  = 1
 c2:   x2 + x40 + x59 + x78 + x97 + x116 + x135 + x154 + x173 + x192 + x211
       + x230 + x249 + x268 + x287 + x306 + x325 + x344  = 1
 c3:   x3 + x22 + x60 + x79 + x98 + x117 + x136 + x155 + x174 + x193 + x212
       + x231 + x250 + x269 + x288 + x307 + x326 + x345  = 1
 c4:   x4 + x23 + x42 + x80 + x99 + x118 + x137 + x156 + x175 + x194 + x213
       + x232 + x251 + x270 + x289 + x308 + x327 + x346  = 1
 c5:   x5 + x24 + x43 + x62 + x100 + x119 + x138 + x157 + x176 + x195 + x214
       + x233 + x252 + x271 + x290 + x309 + x328 + x347  = 1
 c6:   x6 + x25 + x44 + x63 + x82 + x120 + x139 + x158 + x177 + x196 + x215
       + x234 + x253 + x272 + x291 + x310 + x329 + x348  = 1
 c7:   x7 + x26 + x45 + x64 + x83 + x102 + x140 + x159 + x178 + x197 + x216
       + x235 + x254 + x273 + x292 + x311 + x330 + x349  = 1
 c8:   x8 + x27 + x46 + x65 + x84 + x103 + x122 + x160 + x179 + x198 + x217
       + x236 + x255 + x274 + x293 + x312 + x331 + x350  = 1
 c9:   x9 + x28 + x47 + x66 + x85 + x104 + x123 + x142 + x180 + x199 + x218
       + x237 + x256 + x275 + x294 + x313 + x332 + x351  = 1
 c10:  x10 + x29 + x48 + x67 + x86 + x105 + x124 + x143 + x162 + x200 + x219
       + x238 + x257 + x276 + x295 + x314 + x333 + x352  = 1
 c11:  x11 + x30 + x49 + x68 + x87 + x106 + x125 + x144 + x163 + x182 + x220
       + x239 + x258 + x277 + x296 + x315 + x334 + x353  = 1
 c12:  x12 + x31 + x50 + x69 + x88 + x107 + x126 + x145 + x164 + x183 + x202
       + x240 + x259 + x278 + x297 + x316 + x335 + x354  = 1
 c13:  x13 + x32 + x51 + x70 + x89 + x108 + x127 + x146 + x165 + x184 + x203
       + x222 + x260 + x279 + x298 + x317 + x336 + x355  = 1
 c14:  x14 + x33 + x52 + x71 + x90 + x109 + x128 + x147 + x166 + x185 + x204
       + x223 + x242 + x280 + x299 + x318 + x337 + x356  = 1
 c15:  x15 + x34 + x53 + x72 + x91 + x110 + x129 + x148 + x167 + x186 + x205
       + x224 + x243 + x262 + x300 + x319 + x338 + x357  = 1
 c16:  x16 + x35 + x54 + x73 + x92 + x111 + x130 + x149 + x168 + x187 + x206
       + x225 + x244 + x263 + x282 + x320 + x339 + x358  = 1
 c17:  x17 + x36 + x55 + x74 + x93 + x112 + x131 + x150 + x169 + x188 + x207
       + x226 + x245 + x264 + x283 + x302 + x340 + x359  = 1
 c18:  x18 + x37 + x56 + x75 + x94 + x113 + x132 + x151 + x170 + x189 + x208
       + x227 + x246 + x265 + x284 + x303 + x322 + x360  = 1
 c19:  x19 + x38 + x57 + x76 + x95 + x114 + x133 + x152 + x171 + x190 + x209
       + x228 + x247 + x266 + x285 + x304 + x323 + x342  = 1
 c20:  x2 + x3 + x4 + x5 + x6 + x7 + x8 + x9 + x10 + x11 + x12 + x13 + x14
       + x15 + x16 + x17 + x18 + x19  = 1
 c21:  x20 + x22 + x23 + x24 + x25 + x26 + x27 + x28 + x29 + x30 + x31 + x32
       + x33 + x34 + x35 + x36 + x37 + x38  = 1
 c22:  x39 + x40 + x42 + x43 + x44 + x45 + x46 + x47 + x48 + x49 + x50 + x51
       + x52 + x53 + x54 + x55 + x56 + x57  = 1
 c23:  x58 + x59 + x60 + x62 + x63 + x64 + x65 + x66 + x67 + x68 + x69 + x70
       + x71 + x72 + x73 + x74 + x75 + x76  = 1
 c24:  x77 + x78 + x79 + x80 + x82 + x83 + x84 + x85 + x86 + x87 + x88 + x89
       + x90 + x91 + x92 + x93 + x94 + x95  = 1
 c25:  x96 + x97 + x98 + x99 + x100 + x102 + x103 + x104 + x105 + x106 + x107
       + x108 + x109 + x110 + x111 + x112 + x113 + x114  = 1
 c26:  x115 + x116 + x117 + x118 + x119 + x120 + x122 + x123 + x124 + x125
       + x126 + x127 + x128 + x129 + x130 + x131 + x132 + x133  = 1
 c27:  x134 + x135 + x136 + x137 + x138 + x139 + x140 + x142 + x143 + x144
       + x145 + x146 + x147 + x148 + x149 + x150 + x151 + x152  = 1
 c28:  x153 + x154 + x155 + x156 + x157 + x158 + x159 + x160 + x162 + x163
       + x164 + x165 + x166 + x167 + x168 + x169 + x170 + x171  = 1
 c29:  x172 + x173 + x174 + x175 + x176 + x177 + x178 + x179 + x180 + x182
       + x183 + x184 + x185 + x186 + x187 + x188 + x189 + x190  = 1
 c30:  x191 + x192 + x193 + x194 + x195 + x196 + x197 + x198 + x199 + x200
       + x202 + x203 + x204 + x205 + x206 + x207 + x208 + x209  = 1
 c31:  x210 + x211 + x212 + x213 + x214 + x215 + x216 + x217 + x218 + x219
       + x220 + x222 + x223 + x224 + x225 + x226 + x227 + x228  = 1
 c32:  x229 + x230 + x231 + x232 + x233 + x234 + x235 + x236 + x237 + x238
       + x239 + x240 + x242 + x243 + x244 + x245 + x246 + x247  = 1
 c33:  x248 + x249 + x250 + x251 + x252 + x253 + x254 + x255 + x256 + x257
       + x258 + x259 + x260 + x262 + x263 + x264 + x265 + x266  = 1
 c34:  x267 + x268 + x269 + x270 + x271 + x272 + x273 + x274 + x275 + x276
       + x277 + x278 + x279 + x280 + x282 + x283 + x284 + x285  = 1
 c35:  x286 + x287 + x288 + x289 + x290 + x291 + x292 + x293 + x294 + x295
       + x296 + x297 + x298 + x299 + x300 + x302 + x303 + x304  = 1
 c36:  x305 + x306 + x307 + x308 + x309 + x310 + x311 + x312 + x313 + x314
       + x315 + x316 + x317 + x318 + x319 + x320 + x322 + x323  = 1
 c37:  x324 + x325 + x326 + x327 + x328 + x329 + x330 + x331 + x332 + x333
       + x334 + x335 + x336 + x337 + x338 + x339 + x340 + x342  = 1
 c38:  x343 + x344 + x345 + x346 + x347 + x348 + x349 + x350 + x351 + x352
       + x353 + x354 + x355 + x356 + x357 + x358 + x359 + x360  = 1
 c39:  18 x22 + x362 - x363 <= 17
 c40:  18 x23 + x362 - x364 <= 17
 c41:  18 x24 + x362 - x365 <= 17
 c42:  18 x25 + x362 - x366 <= 17
 c43:  18 x26 + x362 - x367 <= 17
 c44:  18 x27 + x362 - x368 <= 17
 c45:  18 x28 + x362 - x369 <= 17
 c46:  18 x29 + x362 - x370 <= 17
 c47:  18 x30 + x362 - x371 <= 17
 c48:  18 x31 + x362 - x372 <= 17
 c49:  18 x32 + x362 - x373 <= 17
 c50:  18 x33 + x362 - x374 <= 17
 c51:  18 x34 + x362 - x375 <= 17
 c52:  18 x35 + x362 - x376 <= 17
 c53:  18 x36 + x362 - x377 <= 17
 c54:  18 x37 + x362 - x378 <= 17
 c55:  18 x38 + x362 - x379 <= 17
 c56:  18 x40 - x362 + x363 <= 17
 c57:  18 x42 + x363 - x364 <= 17
 c58:  18 x43 + x363 - x365 <= 17
 c59:  18 x44 + x363 - x366 <= 17
 c60:  18 x45 + x363 - x367 <= 17
 c61:  18 x46 + x363 - x368 <= 17
 c62:  18 x47 + x363 - x369 <= 17
 c63:  18 x48 + x363 - x370 <= 17
 c64:  18 x49 + x363 - x371 <= 17
 c65:  18 x50 + x363 - x372 <= 17
 c66:  18 x51 + x363 - x373 <= 17
 c67:  18 x52 + x363 - x374 <= 17
 c68:  18 x53 + x363 - x375 <= 17
 c69:  18 x54 + x363 - x376 <= 17
 c70:  18 x55 + x363 - x377 <= 17
 c71:  18 x56 + x363 - x378 <= 17
 c72:  18 x57 + x363 - x379 <= 17
 c73:  18 x59 - x362 + x364 <= 17
 c74:  18 x60 - x363 + x364 <= 17
 c75:  18 x62 + x364 - x365 <= 17
 c76:  18 x63 + x364 - x366 <= 17
 c77:  18 x64 + x364 - x367 <= 17
 c78:  18 x65 + x364 - x368 <= 17
 c79:  18 x66 + x364 - x369 <= 17
 c80:  18 x67 + x364 - x370 <= 17
 c81:  18 x68 + x364 - x371 <= 17
 c82:  18 x69 + x364 - x372 <= 17
 c83:  18 x70 + x364 - x373 <= 17
 c84:  18 x71 + x364 - x374 <= 17
 c85:  18 x72 + x364 - x375 <= 17
 c86:  18 x73 + x364 - x376 <= 17
 c87:  18 x74 + x364 - x377 <= 17
 c88:  18 x75 + x364 - x378 <= 17
 c89:  18 x76 + x364 - x379 <= 17
 c90:  18 x78 - x362 + x365 <= 17
 c91:  18 x79 - x363 + x365 <= 17
 c92:  18 x80 - x364 + x365 <= 17
 c93:  18 x82 + x365 - x366 <= 17
 c94:  18 x83 + x365 - x367 <= 17
 c95:  18 x84 + x365 - x368 <= 17
 c96:  18 x85 + x365 - x369 <= 17
 c97:  18 x86 + x365 - x370 <= 17
 c98:  18 x87 + x365 - x371 <= 17
 c99:  18 x88 + x365 - x372 <= 17
 c100: 18 x89 + x365 - x373 <= 17
 c101: 18 x90 + x365 - x374 <= 17
 c102: 18 x91 + x365 - x375 <= 17
 c103: 18 x92 + x365 - x376 <= 17
 c104: 18 x93 + x365 - x377 <= 17
 c105: 18 x94 + x365 - x378 <= 17
 c106: 18 x95 + x365 - x379 <= 17
 c107: 18 x97 - x362 + x366 <= 17
 c108: 18 x98 - x363 + x366 <= 17
 c109: 18 x99 - x364 + x366 <= 17
 c110: 18 x100 - x365 + x366 <= 17
 c111: 18 x102 + x366 - x367 <= 17
 c112: 18 x103 + x366 - x368 <= 17
 c113: 18 x104 + x366 - x369 <= 17
 c114: 18 x105 + x366 - x370 <= 17
 c115: 18 x106 + x366 - x371 <= 17
 c116: 18 x107 + x366 - x372 <= 17
 c117: 18 x108 + x366 - x373 <= 17
 c118: 18 x109 + x366 - x374 <= 17
 c119: 18 x110 + x366 - x375 <= 17
 c120: 18 x111 + x366 - x376 <= 17
 c121: 18 x112 + x366 - x377 <= 17
 c122: 18 x113 + x366 - x378 <= 17
 c123: 18 x114 + x366 - x379 <= 17
 c124: 18 x116 - x362 + x367 <= 17
 c125: 18 x117 - x363 + x367 <= 17
 c126: 18 x118 - x364 + x367 <= 17
 c127: 18 x119 - x365 + x367 <= 17
 c128: 18 x120 - x366 + x367 <= 17
 c129: 18 x122 + x367 - x368 <= 17
 c130: 18 x123 + x367 - x369 <= 17
 c131: 18 x124 + x367 - x370 <= 17
 c132: 18 x125 + x367 - x371 <= 17
 c133: 18 x126 + x367 - x372 <= 17
 c134: 18 x127 + x367 - x373 <= 17
 c135: 18 x128 + x367 - x374 <= 17
 c136: 18 x129 + x367 - x375 <= 17
 c137: 18 x130 + x367 - x376 <= 17
 c138: 18 x131 + x367 - x377 <= 17
 c139: 18 x132 + x367 - x378 <= 17
 c140: 18 x133 + x367 - x379 <= 17
 c141: 18 x135 - x362 + x368 <= 17
 c142: 18 x136 - x363 + x368 <= 17
 c143: 18 x137 - x364 + x368 <= 17
 c144: 18 x138 - x365 + x368 <= 17
 c145: 18 x139 - x366 + x368 <= 17
 c146: 18 x140 - x367 + x368 <= 17
 c147: 18 x142 + x368 - x369 <= 17
 c148: 18 x143 + x368 - x370 <= 17
 c149: 18 x144 + x368 - x371 <= 17
 c150: 18 x145 + x368 - x372 <= 17
 c151: 18 x146 + x368 - x373 <= 17
 c152: 18 x147 + x368 - x374 <= 17
 c153: 18 x148 + x368 - x375 <= 17
 c154: 18 x149 + x368 - x376 <= 17
 c155: 18 x150 + x368 - x377 <= 17
 c156: 18 x151 + x368 - x378 <= 17
 c157: 18 x152 + x368 - x379 <= 17
 c158: 18 x154 - x362 + x369 <= 17
 c159: 18 x155 - x363 + x369 <= 17
 c160: 18 x156 - x364 + x369 <= 17
 c161: 18 x157 - x365 + x369 <= 17
 c162: 18 x158 - x366 + x369 <= 17
 c163: 18 x159 - x367 + x369 <= 17
 c164: 18 x160 - x368 + x369 <= 17
 c165: 18 x162 + x369 - x370 <= 17
 c166: 18 x163 + x369 - x371 <= 17
 c167: 18 x164 + x369 - x372 <= 17
 c168: 18 x165 + x369 - x373 <= 17
 c169: 18 x166 + x369 - x374 <= 17
 c170: 18 x167 + x369 - x375 <= 17
 c171: 18 x168 + x369 - x376 <= 17
 c172: 18 x169 + x369 - x377 <= 17
 c173: 18 x170 + x369 - x378 <= 17
 c174: 18 x171 + x369 - x379 <= 17
 c175: 18 x173 - x362 + x370 <= 17
 c176: 18 x174 - x363 + x370 <= 17
 c177: 18 x175 - x364 + x370 <= 17
 c178: 18 x176 - x365 + x370 <= 17
 c179: 18 x177 - x366 + x370 <= 17
 c180: 18 x178 - x367 + x370 <= 17
 c181: 18 x179 - x368 + x370 <= 17
 c182: 18 x180 - x369 + x370 <= 17
 c183: 18 x182 + x370 - x371 <= 17
 c184: 18 x183 + x370 - x372 <= 17
 c185: 18 x184 + x370 - x373 <= 17
 c186: 18 x185 + x370 - x374 <= 17
 c187: 18 x186 + x370 - x375 <= 17
 c188: 18 x187 + x370 - x376 <= 17
 c189: 18 x188 + x370 - x377 <= 17
 c190: 18 x189 + x370 - x378 <= 17
 c191: 18 x190 + x370 - x379 <= 17
 c192: 18 x192 - x362 + x371 <= 17
 c193: 18 x193 - x363 + x371 <= 17
 c194: 18 x194 - x364 + x371 <= 17
 c195: 18 x195 - x365 + x371 <= 17
 c196: 18 x196 - x366 + x371 <= 17
 c197: 18 x197 - x367 + x371 <= 17
 c198: 18 x198 - x368 + x371 <= 17
 c199: 18 x199 - x369 + x371 <= 17
 c200: 18 x200 - x370 + x371 <= 17
 c201: 18 x202 + x371 - x372 <= 17
 c202: 18 x203 + x371 - x373 <= 17
 c203: 18 x204 + x371 - x374 <= 17
 c204: 18 x205 + x371 - x375 <= 17
 c205: 18 x206 + x371 - x376 <= 17
 c206: 18 x207 + x371 - x377 <= 17
 c207: 18 x208 + x371 - x378 <= 17
 c208: 18 x209 + x371 - x379 <= 17
 c209: 18 x211 - x362 + x372 <= 17
 c210: 18 x212 - x363 + x372 <= 17
 c211: 18 x213 - x364 + x372 <= 17
 c212: 18 x214 - x365 + x372 <= 17
 c213: 18 x215 - x366 + x372 <= 17
 c214: 18 x216 - x367 + x372 <= 17
 c215: 18 x217 - x368 + x372 <= 17
 c216: 18 x218 - x369 + x372 <= 17
 c217: 18 x219 - x370 + x372 <= 17
 c218: 18 x220 - x371 + x372 <= 17
 c219: 18 x222 + x372 - x373 <= 17
 c220: 18 x223 + x372 - x374 <= 17
 c221: 18 x224 + x372 - x375 <= 17
 c222: 18 x225 + x372 - x376 <= 17
 c223: 18 x226 + x372 - x377 <= 17
 c224: 18 x227 + x372 - x378 <= 17
 c225: 18 x228 + x372 - x379 <= 17
 c226: 18 x230 - x362 + x373 <= 17
 c227: 18 x231 - x363 + x373 <= 17
 c228: 18 x232 - x364 + x373 <= 17
 c229: 18 x233 - x365 + x373 <= 17
 c230: 18 x234 - x366 + x373 <= 17
 c231: 18 x235 - x367 + x373 <= 17
 c232: 18 x236 - x368 + x373 <= 17
 c233: 18 x237 - x369 + x373 <= 17
 c234: 18 x238 - x370 + x373 <= 17
 c235: 18 x239 - x371 + x373 <= 17
 c236: 18 x240 - x372 + x373 <= 17
 c237: 18 x242 + x373 - x374 <= 17
 c238: 18 x243 + x373 - x375 <= 17
 c239: 18 x244 + x373 - x376 <= 17
 c240: 18 x245 + x373 - x377 <= 17
 c241: 18 x246 + x373 - x378 <= 17
 c242: 18 x247 + x373 - x379 <= 17
 c243: 18 x249 - x362 + x374 <= 17
 c244: 18 x250 - x363 + x374 <= 17
 c245: 18 x251 - x364 + x374 <= 17
 c246: 18 x252 - x365 + x374 <= 17
 c247: 18 x253 - x366 + x374 <= 17
 c248: 18 x254 - x367 + x374 <= 17
 c249: 18 x255 - x368 + x374 <= 17
 c250: 18 x256 - x369 + x374 <= 17
 c251: 18 x257 - x370 + x374 <= 17
 c252: 18 x258 - x371 + x374 <= 17
 c253: 18 x259 - x372 + x374 <= 17
 c254: 18 x260 - x373 + x374 <= 17
 c255: 18 x262 + x374 - x375 <= 17
 c256: 18 x263 + x374 - x376 <= 17
 c257: 18 x264 + x374 - x377 <= 17
 c258: 18 x265 + x374 - x378 <= 17
 c259: 18 x266 + x374 - x379 <= 17
 c260: 18 x268 - x362 + x375 <= 17
 c261: 18 x269 - x363 + x375 <= 17
 c262: 18 x270 - x364 + x375 <= 17
 c263: 18 x271 - x365 + x375 <= 17
 c264: 18 x272 - x366 + x375 <= 17
 c265: 18 x273 - x367 + x375 <= 17
 c266: 18 x274 - x368 + x375 <= 17
 c267: 18 x275 - x369 + x375 <= 17
 c268: 18 x276 - x370 + x375 <= 17
 c269: 18 x277 - x371 + x375 <= 17
 c270: 18 x278 - x372 + x375 <= 17
 c271: 18 x279 - x373 + x375 <= 17
 c272: 18 x280 - x374 + x375 <= 17
 c273: 18 x282 + x375 - x376 <= 17
 c274: 18 x283 + x375 - x377 <= 17
 c275: 18 x284 + x375 - x378 <= 17
 c276: 18 x285 + x375 - x379 <= 17
 c277: 18 x287 - x362 + x376 <= 17
 c278: 18 x288 - x363 + x376 <= 17
 c279: 18 x289 - x364 + x376 <= 17
 c280: 18 x290 - x365 + x376 <= 17
 c281: 18 x291 - x366 + x376 <= 17
 c282: 18 x292 - x367 + x376 <= 17
 c283: 18 x293 - x368 + x376 <= 17
 c284: 18 x294 - x369 + x376 <= 17
 c285: 18 x295 - x370 + x376 <= 17
 c286: 18 x296 - x371 + x376 <= 17
 c287: 18 x297 - x372 + x376 <= 17
 c288: 18 x298 - x373 + x376 <= 17
 c289: 18 x299 - x374 + x376 <= 17
 c290: 18 x300 - x375 + x376 <= 17
 c291: 18 x302 + x376 - x377 <= 17
 c292: 18 x303 + x376 - x378 <= 17
 c293: 18 x304 + x376 - x379 <= 17
 c294: 18 x306 - x362 + x377 <= 17
 c295: 18 x307 - x363 + x377 <= 17
 c296: 18 x308 - x364 + x377 <= 17
 c297: 18 x309 - x365 + x377 <= 17
 c298: 18 x310 - x366 + x377 <= 17
 c299: 18 x311 - x367 + x377 <= 17
 c300: 18 x312 - x368 + x377 <= 17
 c301: 18 x313 - x369 + x377 <= 17
 c302: 18 x314 - x370 + x377 <= 17
 c303: 18 x315 - x371 + x377 <= 17
 c304: 18 x316 - x372 + x377 <= 17
 c305: 18 x317 - x373 + x377 <= 17
 c306: 18 x318 - x374 + x377 <= 17
 c307: 18 x319 - x375 + x377 <= 17
 c308: 18 x320 - x376 + x377 <= 17
 c309: 18 x322 + x377 - x378 <= 17
 c310: 18 x323 + x377 - x379 <= 17
 c311: 18 x325 - x362 + x378 <= 17
 c312: 18 x326 - x363 + x378 <= 17
 c313: 18 x327 - x364 + x378 <= 17
 c314: 18 x328 - x365 + x378 <= 17
 c315: 18 x329 - x366 + x378 <= 17
 c316: 18 x330 - x367 + x378 <= 17
 c317: 18 x331 - x368 + x378 <= 17
 c318: 18 x332 - x369 + x378 <= 17
 c319: 18 x333 - x370 + x378 <= 17
 c320: 18 x334 - x371 + x378 <= 17
 c321: 18 x335 - x372 + x378 <= 17
 c322: 18 x336 - x373 + x378 <= 17
 c323: 18 x337 - x374 + x378 <= 17
 c324: 18 x338 - x375 + x378 <= 17
 c325: 18 x339 - x376 + x378 <= 17
 c326: 18 x340 - x377 + x378 <= 17
 c327: 18 x342 + x378 - x379 <= 17
 c328: 18 x344 - x362 + x379 <= 17
 c329: 18 x345 - x363 + x379 <= 17
 c330: 18 x346 - x364 + x379 <= 17
 c331: 18 x347 - x365 + x379 <= 17
 c332: 18 x348 - x366 + x379 <= 17
 c333: 18 x349 - x367 + x379 <= 17
 c334: 18 x350 - x368 + x379 <= 17
 c335: 18 x351 - x369 + x379 <= 17
 c336: 18 x352 - x370 + x379 <= 17
 c337: 18 x353 - x371 + x379 <= 17
 c338: 18 x354 - x372 + x379 <= 17
 c339: 18 x355 - x373 + x379 <= 17
 c340: 18 x356 - x374 + x379 <= 17
 c341: 18 x357 - x375 + x379 <= 17
 c342: 18 x358 - x376 + x379 <= 17
 c343: 18 x359 - x377 + x379 <= 17
 c344: 18 x360 - x378 + x379 <= 17
 c345: x2 + x20 <= 1
 c346: x3 + x39 <= 1
 c347: x4 + x58 <= 1
 c348: x5 + x77 <= 1
 c349: x6 + x96 <= 1
 c350: x7 + x115 <= 1
 c351: x8 + x134 <= 1
 c352: x9 + x153 <= 1
 c353: x10 + x172 <= 1
 c354: x11 + x191 <= 1
 c355: x12 + x210 <= 1
 c356: x13 + x229 <= 1
 c357: x14 + x248 <= 1
 c358: x15 + x267 <= 1
 c359: x16 + x286 <= 1
 c360: x17 + x305 <= 1
 c361: x18 + x324 <= 1
 c362: x19 + x343 <= 1
 c363: x22 + x40 <= 1
 c364: x23 + x59 <= 1
 c365: x24 + x78 <= 1
 c366: x25 + x97 <= 1
 c367: x26 + x116 <= 1
 c368: x27 + x135 <= 1
 c369: x28 + x154 <= 1
 c370: x29 + x173 <= 1
 c371: x30 + x192 <= 1
 c372: x31 + x211 <= 1
 c373: x32 + x230 <= 1
 c374: x33 + x249 <= 1
 c375: x34 + x268 <= 1
 c376: x35 + x287 <= 1
 c377: x36 + x306 <= 1
 c378: x37 + x325 <= 1
 c379: x38 + x344 <= 1
 c380: x42 + x60 <= 1
 c381: x43 + x79 <= 1
 c382: x44 + x98 <= 1
 c383: x45 + x117 <= 1
 c384: x46 + x136 <= 1
 c385: x47 + x155 <= 1
 c386: x48 + x174 <= 1
 c387: x49 + x193 <= 1
 c388: x50 + x212 <= 1
 c389: x51 + x231 <= 1
 c390: x52 + x250 <= 1
 c391: x53 + x269 <= 1
 c392: x54 + x288 <= 1
 c393: x55 + x307 <= 1
 c394: x56 + x326 <= 1
 c395: x57 + x345 <= 1
 c396: x62 + x80 <= 1
 c397: x63 + x99 <= 1
 c398: x64 + x118 <= 1
 c399: x65 + x137 <= 1
 c400: x66 + x156 <= 1
 c401: x67 + x175 <= 1
 c402: x68 + x194 <= 1
 c403: x69 + x213 <= 1
 c404: x70 + x232 <= 1
 c405: x71 + x251 <= 1
 c406: x72 + x270 <= 1
 c407: x73 + x289 <= 1
 c408: x74 + x308 <= 1
 c409: x75 + x327 <= 1
 c410: x76 + x346 <= 1
 c411: x82 + x100 <= 1
 c412: x83 + x119 <= 1
 c413: x84 + x138 <= 1
 c414: x85 + x157 <= 1
 c415: x86 + x176 <= 1
 c416: x87 + x195 <= 1
 c417: x88 + x214 <= 1
 c418: x89 + x233 <= 1
 c419: x90 + x252 <= 1
 c420: x91 + x271 <= 1
 c421: x92 + x290 <= 1
 c422: x93 + x309 <= 1
 c423: x94 + x328 <= 1
 c424: x95 + x347 <= 1
 c425: x102 + x120 <= 1
 c426: x103 + x139 <= 1
 c427: x104 + x158 <= 1
 c428: x105 + x177 <= 1
 c429: x106 + x196 <= 1
 c430: x107 + x215 <= 1
 c431: x108 + x234 <= 1
 c432: x109 + x253 <= 1
 c433: x110 + x272 <= 1
 c434: x111 + x291 <= 1
 c435: x112 + x310 <= 1
 c436: x113 + x329 <= 1
 c437: x114 + x348 <= 1
 c438: x122 + x140 <= 1
 c439: x123 + x159 <= 1
 c440: x124 + x178 <= 1
 c441: x125 + x197 <= 1
 c442: x126 + x216 <= 1
 c443: x127 + x235 <= 1
 c444: x128 + x254 <= 1
 c445: x129 + x273 <= 1
 c446: x130 + x292 <= 1
 c447: x131 + x311 <= 1
 c448: x132 + x330 <= 1
 c449: x133 + x349 <= 1
 c450: x142 + x160 <= 1
 c451: x143 + x179 <= 1
 c452: x144 + x198 <= 1
 c453: x145 + x217 <= 1
 c454: x146 + x236 <= 1
 c455: x147 + x255 <= 1
 c456: x148 + x274 <= 1
 c457: x149 + x293 <= 1
 c458: x150 + x312 <= 1
 c459: x151 + x331 <= 1
 c460: x152 + x350 <= 1
 c461: x162 + x180 <= 1
 c462: x163 + x199 <= 1
 c463: x164 + x218 <= 1
 c464: x165 + x237 <= 1
 c465: x166 + x256 <= 1
 c466: x167 + x275 <= 1
 c467: x168 + x294 <= 1
 c468: x169 + x313 <= 1
 c469: x170 + x332 <= 1
 c470: x171 + x351 <= 1
 c471: x182 + x200 <= 1
 c472: x183 + x219 <= 1
 c473: x184 + x238 <= 1
 c474: x185 + x257 <= 1
 c475: x186 + x276 <= 1
 c476: x187 + x295 <= 1
 c477: x188 + x314 <= 1
 c478: x189 + x333 <= 1
 c479: x190 + x352 <= 1
 c480: x202 + x220 <= 1
 c481: x203 + x239 <= 1
 c482: x204 + x258 <= 1
 c483: x205 + x277 <= 1
 c484: x206 + x296 <= 1
 c485: x207 + x315 <= 1
 c486: x208 + x334 <= 1
 c487: x209 + x353 <= 1
 c488: x222 + x240 <= 1
 c489: x223 + x259 <= 1
 c490: x224 + x278 <= 1
 c491: x225 + x297 <= 1
 c492: x226 + x316 <= 1
 c493: x227 + x335 <= 1
 c494: x228 + x354 <= 1
 c495: x242 + x260 <= 1
 c496: x243 + x279 <= 1
 c497: x244 + x298 <= 1
 c498: x245 + x317 <= 1
 c499: x246 + x336 <= 1
 c500: x247 + x355 <= 1
 c501: x262 + x280 <= 1
 c502: x263 + x299 <= 1
 c503: x264 + x318 <= 1
 c504: x265 + x337 <= 1
 c505: x266 + x356 <= 1
 c506: x282 + x300 <= 1
 c507: x283 + x319 <= 1
 c508: x284 + x338 <= 1
 c509: x285 + x357 <= 1
 c510: x302 + x320 <= 1
 c511: x303 + x339 <= 1
 c512: x304 + x358 <= 1
 c513: x322 + x340 <= 1
 c514: x323 + x359 <= 1
 c515: x342 + x360 <= 1
Bounds
      x1 = 0
 0 <= x2 <= 1
 0 <= x3 <= 1
 0 <= x4 <= 1
 0 <= x5 <= 1
 0 <= x6 <= 1
 0 <= x7 <= 1
 0 <= x8 <= 1
 0 <= x9 <= 1
 0 <= x10 <= 1
 0 <= x11 <= 1
 0 <= x12 <= 1
 0 <= x13 <= 1
 0 <= x14 <= 1
 0 <= x15 <= 1
 0 <= x16 <= 1
 0 <= x17 <= 1
 0 <= x18 <= 1
 0 <= x19 <= 1
 0 <= x20 <= 1
      x21 = 0
 0 <= x22 <= 1
 0 <= x23 <= 1
 0 <= x24 <= 1
 0 <= x25 <= 1
 0 <= x26 <= 1
 0 <= x27 <= 1
 0 <= x28 <= 1
 0 <= x29 <= 1
 0 <= x30 <= 1
 0 <= x31 <= 1
 0 <= x32 <= 1
 0 <= x33 <= 1
 0 <= x34 <= 1
 0 <= x35 <= 1
 0 <= x36 <= 1
 0 <= x37 <= 1
 0 <= x38 <= 1
 0 <= x39 <= 1
 0 <= x40 <= 1
      x41 = 0
 0 <= x42 <= 1
 0 <= x43 <= 1
 0 <= x44 <= 1
 0 <= x45 <= 1
 0 <= x46 <= 1
 0 <= x47 <= 1
 0 <= x48 <= 1
 0 <= x49 <= 1
 0 <= x50 <= 1
 0 <= x51 <= 1
 0 <= x52 <= 1
 0 <= x53 <= 1
 0 <= x54 <= 1
 0 <= x55 <= 1
 0 <= x56 <= 1
 0 <= x57 <= 1
 0 <= x58 <= 1
 0 <= x59 <= 1
 0 <= x60 <= 1
      x61 = 0
 0 <= x62 <= 1
 0 <= x63 <= 1
 0 <= x64 <= 1
 0 <= x65 <= 1
 0 <= x66 <= 1
 0 <= x67 <= 1
 0 <= x68 <= 1
 0 <= x69 <= 1
 0 <= x70 <= 1
 0 <= x71 <= 1
 0 <= x72 <= 1
 0 <= x73 <= 1
 0 <= x74 <= 1
 0 <= x75 <= 1
 0 <= x76 <= 1
 0 <= x77 <= 1
 0 <= x78 <= 1
 0 <= x79 <= 1
 0 <= x80 <= 1
      x81 = 0
 0 <= x82 <= 1
 0 <= x83 <= 1
 0 <= x84 <= 1
 0 <= x85 <= 1
 0 <= x86 <= 1
 0 <= x87 <= 1
 0 <= x88 <= 1
 0 <= x89 <= 1
 0 <= x90 <= 1
 0 <= x91 <= 1
 0 <= x92 <= 1
 0 <= x93 <= 1
 0 <= x94 <= 1
 0 <= x95 <= 1
 0 <= x96 <= 1
 0 <= x97 <= 1
 0 <= x98 <= 1
 0 <= x99 <= 1
 0 <= x100 <= 1
      x101 = 0
 0 <= x102 <= 1
 0 <= x103 <= 1
 0 <= x104 <= 1
 0 <= x105 <= 1
 0 <= x106 <= 1
 0 <= x107 <= 1
 0 <= x108 <= 1
 0 <= x109 <= 1
 0 <= x110 <= 1
 0 <= x111 <= 1
 0 <= x112 <= 1
 0 <= x113 <= 1
 0 <= x114 <= 1
 0 <= x115 <= 1
 0 <= x116 <= 1
 0 <= x117 <= 1
 0 <= x118 <= 1
 0 <= x119 <= 1
 0 <= x120 <= 1
      x121 = 0
 0 <= x122 <= 1
 0 <= x123 <= 1
 0 <= x124 <= 1
 0 <= x125 <= 1
 0 <= x126 <= 1
 0 <= x127 <= 1
 0 <= x128 <= 1
 0 <= x129 <= 1
 0 <= x130 <= 1
 0 <= x131 <= 1
 0 <= x132 <= 1
 0 <= x133 <= 1
 0 <= x134 <= 1
 0 <= x135 <= 1
 0 <= x136 <= 1
 0 <= x137 <= 1
 0 <= x138 <= 1
 0 <= x139 <= 1
 0 <= x140 <= 1
      x141 = 0
 0 <= x142 <= 1
 0 <= x143 <= 1
 0 <= x144 <= 1
 0 <= x145 <= 1
 0 <= x146 <= 1
 0 <= x147 <= 1
 0 <= x148 <= 1
 0 <= x149 <= 1
 0 <= x150 <= 1
 0 <= x151 <= 1
 0 <= x152 <= 1
 0 <= x153 <= 1
 0 <= x154 <= 1
 0 <= x155 <= 1
 0 <= x156 <= 1
 0 <= x157 <= 1
 0 <= x158 <= 1
 0 <= x159 <= 1
 0 <= x160 <= 1
      x161 = 0
 0 <= x162 <= 1
 0 <= x163 <= 1
 0 <= x164 <= 1
 0 <= x165 <= 1
 0 <= x166 <= 1
 0 <= x167 <= 1
 0 <= x168 <= 1
 0 <= x169 <= 1
 0 <= x170 <= 1
 0 <= x171 <= 1
 0 <= x172 <= 1
 0 <= x173 <= 1
 0 <= x174 <= 1
 0 <= x175 <= 1
 0 <= x176 <= 1
 0 <= x177 <= 1
 0 <= x178 <= 1
 0 <= x179 <= 1
 0 <= x180 <= 1
      x181 = 0
 0 <= x182 <= 1
 0 <= x183 <= 1
 0 <= x184 <= 1
 0 <= x185 <= 1
 0 <= x186 <= 1
 0 <= x187 <= 1
 0 <= x188 <= 1
 0 <= x189 <= 1
 0 <= x190 <= 1
 0 <= x191 <= 1
 0 <= x192 <= 1
 0 <= x193 <= 1
 0 <= x194 <= 1
 0 <= x195 <= 1
 0 <= x196 <= 1
 0 <= x197 <= 1
 0 <= x198 <= 1
 0 <= x199 <= 1
 0 <= x200 <= 1
      x201 = 0
 0 <= x202 <= 1
 0 <= x203 <= 1
 0 <= x204 <= 1
 0 <= x205 <= 1
 0 <= x206 <= 1
 0 <= x207 <= 1
 0 <= x208 <= 1
 0 <= x209 <= 1
 0 <= x210 <= 1
 0 <= x211 <= 1
 0 <= x212 <= 1
 0 <= x213 <= 1
 0 <= x214 <= 1
 0 <= x215 <= 1
 0 <= x216 <= 1
 0 <= x217 <= 1
 0 <= x218 <= 1
 0 <= x219 <= 1
 0 <= x220 <= 1
      x221 = 0
 0 <= x222 <= 1
 0 <= x223 <= 1
 0 <= x224 <= 1
 0 <= x225 <= 1
 0 <= x226 <= 1
 0 <= x227 <= 1
 0 <= x228 <= 1
 0 <= x229 <= 1
 0 <= x230 <= 1
 0 <= x231 <= 1
 0 <= x232 <= 1
 0 <= x233 <= 1
 0 <= x234 <= 1
 0 <= x235 <= 1
 0 <= x236 <= 1
 0 <= x237 <= 1
 0 <= x238 <= 1
 0 <= x239 <= 1
 0 <= x240 <= 1
      x241 = 0
 0 <= x242 <= 1
 0 <= x243 <= 1
 0 <= x244 <= 1
 0 <= x245 <= 1
 0 <= x246 <= 1
 0 <= x247 <= 1
 0 <= x248 <= 1
 0 <= x249 <= 1
 0 <= x250 <= 1
 0 <= x251 <= 1
 0 <= x252 <= 1
 0 <= x253 <= 1
 0 <= x254 <= 1
 0 <= x255 <= 1
 0 <= x256 <= 1
 0 <= x257 <= 1
 0 <= x258 <= 1
 0 <= x259 <= 1
 0 <= x260 <= 1
      x261 = 0
 0 <= x262 <= 1
 0 <= x263 <= 1
 0 <= x264 <= 1
 0 <= x265 <= 1
 0 <= x266 <= 1
 0 <= x267 <= 1
 0 <= x268 <= 1
 0 <= x269 <= 1
 0 <= x270 <= 1
 0 <= x271 <= 1
 0 <= x272 <= 1
 0 <= x273 <= 1
 0 <= x274 <= 1
 0 <= x275 <= 1
 0 <= x276 <= 1
 0 <= x277 <= 1
 0 <= x278 <= 1
 0 <= x279 <= 1
 0 <= x280 <= 1
      x281 = 0
 0 <= x282 <= 1
 0 <= x283 <= 1
 0 <= x284 <= 1
 0 <= x285 <= 1
 0 <= x286 <= 1
 0 <= x287 <= 1
 0 <= x288 <= 1
 0 <= x289 <= 1
 0 <= x290 <= 1
 0 <= x291 <= 1
 0 <= x292 <= 1
 0 <= x293 <= 1
 0 <= x294 <= 1
 0 <= x295 <= 1
 0 <= x296 <= 1
 0 <= x297 <= 1
 0 <= x298 <= 1
 0 <= x299 <= 1
 0 <= x300 <= 1
      x301 = 0
 0 <= x302 <= 1
 0 <= x303 <= 1
 0 <= x304 <= 1
 0 <= x305 <= 1
 0 <= x306 <= 1
 0 <= x307 <= 1
 0 <= x308 <= 1
 0 <= x309 <= 1
 0 <= x310 <= 1
 0 <= x311 <= 1
 0 <= x312 <= 1
 0 <= x313 <= 1
 0 <= x314 <= 1
 0 <= x315 <= 1
 0 <= x316 <= 1
 0 <= x317 <= 1
 0 <= x318 <= 1
 0 <= x319 <= 1
 0 <= x320 <= 1
      x321 = 0
 0 <= x322 <= 1
 0 <= x323 <= 1
 0 <= x324 <= 1
 0 <= x325 <= 1
 0 <= x326 <= 1
 0 <= x327 <= 1
 0 <= x328 <= 1
 0 <= x329 <= 1
 0 <= x330 <= 1
 0 <= x331 <= 1
 0 <= x332 <= 1
 0 <= x333 <= 1
 0 <= x334 <= 1
 0 <= x335 <= 1
 0 <= x336 <= 1
 0 <= x337 <= 1
 0 <= x338 <= 1
 0 <= x339 <= 1
 0 <= x340 <= 1
      x341 = 0
 0 <= x342 <= 1
 0 <= x343 <= 1
 0 <= x344 <= 1
 0 <= x345 <= 1
 0 <= x346 <= 1
 0 <= x347 <= 1
 0 <= x348 <= 1
 0 <= x349 <= 1
 0 <= x350 <= 1
 0 <= x351 <= 1
 0 <= x352 <= 1
 0 <= x353 <= 1
 0 <= x354 <= 1
 0 <= x355 <= 1
 0 <= x356 <= 1
 0 <= x357 <= 1
 0 <= x358 <= 1
 0 <= x359 <= 1
 0 <= x360 <= 1
      x361 = 0
 1 <= x362 <= 18
 1 <= x363 <= 18
 1 <= x364 <= 18
 1 <= x365 <= 18
 1 <= x366 <= 18
 1 <= x367 <= 18
 1 <= x368 <= 18
 1 <= x369 <= 18
 1 <= x370 <= 18
 1 <= x371 <= 18
 1 <= x372 <= 18
 1 <= x373 <= 18
 1 <= x374 <= 18
 1 <= x375 <= 18
 1 <= x376 <= 18
 1 <= x377 <= 18
 1 <= x378 <= 18
 1 <= x379 <= 18
Binaries
 x1  x2  x3  x4  x5  x6  x7  x8  x9  x10  x11  x12  x13  x14  x15  x16  x17 
 x18  x19  x20  x21  x22  x23  x24  x25  x26  x27  x28  x29  x30  x31  x32 
 x33  x34  x35  x36  x37  x38  x39  x40  x41  x42  x43  x44  x45  x46  x47 
 x48  x49  x50  x51  x52  x53  x54  x55  x56  x57  x58  x59  x60  x61  x62 
 x63  x64  x65  x66  x67  x68  x69  x70  x71  x72  x73  x74  x75  x76  x77 
 x78  x79  x80  x81  x82  x83  x84  x85  x86  x87  x88  x89  x90  x91  x92 
 x93  x94  x95  x96  x97  x98  x99  x100  x101  x102  x103  x104  x105  x106 
 x107  x108  x109  x110  x111  x112  x113  x114  x115  x116  x117  x118  x119 
 x120  x121  x122  x123  x124  x125  x126  x127  x128  x129  x130  x131  x132 
 x133  x134  x135  x136  x137  x138  x139  x140  x141  x142  x143  x144  x145 
 x146  x147  x148  x149  x150  x151  x152  x153  x154  x155  x156  x157  x158 
 x159  x160  x161  x162  x163  x164  x165  x166  x167  x168  x169  x170  x171 
 x172  x173  x174  x175  x176  x177  x178  x179  x180  x181  x182  x183  x184 
 x185  x186  x187  x188  x189  x190  x191  x192  x193  x194  x195  x196  x197 
 x198  x199  x200  x201  x202  x203  x204  x205  x206  x207  x208  x209  x210 
 x211  x212  x213  x214  x215  x216  x217  x218  x219  x220  x221  x222  x223 
 x224  x225  x226  x227  x228  x229  x230  x231  x232  x233  x234  x235  x236 
 x237  x238  x239  x240  x241  x242  x243  x244  x245  x246  x247  x248  x249 
 x250  x251  x252  x253  x254  x255  x256  x257  x258  x259  x260  x261  x262 
 x263  x264  x265  x266  x267  x268  x269  x270  x271  x272  x273  x274  x275 
 x276  x277  x278  x279  x280  x281  x282  x283  x284  x285  x286  x287  x288 
 x289  x290  x291  x292  x293  x294  x295  x296  x297  x298  x299  x300  x301 
 x302  x303  x304  x305  x306  x307  x308  x309  x310  x311  x312  x313  x314 
 x315  x316  x317  x318  x319  x320  x321  x322  x323  x324  x325  x326  x327 
 x328  x329  x330  x331  x332  x333  x334  x335  x336  x337  x338  x339  x340 
 x341  x342  x343  x344  x345  x346  x347  x348  x349  x350  x351  x352  x353 
 x354  x355  x356  x357  x358  x359  x360  x361 
Generals
 x362  x363  x364  x365  x366  x367  x368  x369  x370  x371  x372  x373  x374 
 x375  x376  x377  x378  x379 
End
